10J3M/DAT/10J3MULA-1.dat
10 3
27.8532 775.8008
7.8775 62.055
7.8853 62.178
0.3926 0.1541
27.9628 781.9182
37.8244 1430.6852
26.0813 680.2342
41.307 1706.2682
8.4995 72.2415
20.5044 420.4304
1997.3219