10J3M/SOL/10J3MULA-1.sol
solution status: optimal solution found
objective value:                     75.5202666666667
x#1#3                                               1 	(obj:0)
x#2#3                                               1 	(obj:0)
x#3#1                               0.326599639823024 	(obj:0)
x#3#2                               0.673400360176976 	(obj:0)
x#4#1                                               1 	(obj:0)
x#5#1                                               1 	(obj:0)
x#6#1                               0.553928239213221 	(obj:0)
x#6#3                               0.446071760786779 	(obj:0)
x#7#2                               0.831057485426913 	(obj:0)
x#7#3                               0.168942514573087 	(obj:0)
x#8#1                                               1 	(obj:0)
x#9#1                               0.673076830577528 	(obj:0)
x#9#2                               0.326923169422472 	(obj:0)
x#10#2                                              1 	(obj:0)
z                                    75.5202666666667 	(obj:1)
